language ESSENCE' 1.0

letting jobs = 102
letting horizon = 804
letting resourcesRenew = 2
letting resourcesNonrenew = 2
letting resourceLimits = [15, 18, 375, 399]
letting successors = [[2, 3, 4, 5, 6, 8, 9, 10, 11, 12, 13, 17, 19, 26, 34], [42, 37, 35, 30, 28, 27, 23, 16, 15], [35, 29, 23, 20, 7], [53, 43, 42, 40, 39, 37, 36, 35, 33, 31, 30, 29, 27, 25, 24, 23], [40, 36, 30, 29, 27, 25, 23, 14], [53, 36, 33, 30, 29, 27, 23, 14], [63, 60, 53, 52, 45, 42, 40, 39, 38, 37, 36, 33, 32, 31, 30, 25], [51, 40, 39, 38, 36, 28, 27, 25, 21, 18], [63, 61, 58, 53, 52, 47, 43, 42, 40, 39, 37, 36, 30, 20], [53, 42, 38, 37, 33, 27, 25, 22, 21], [68, 61, 60, 55, 54, 52, 50, 48, 46, 45, 44, 43, 42, 41, 38, 37, 36, 35, 31], [55, 53, 52, 46, 43, 39, 37, 25, 23], [60, 46, 45, 36, 33, 32, 25, 24], [63, 62, 60, 55, 54, 52, 49, 48, 47, 46, 44, 42, 39, 38, 37, 32], [60, 55, 46, 45, 39, 38, 32, 31, 25], [58, 53, 52, 43, 40, 39, 20], [68, 64, 63, 62, 61, 60, 55, 54, 52, 50, 48, 46, 45, 41, 40, 38, 31], [68, 66, 64, 63, 61, 60, 58, 55, 52, 48, 46, 45, 44, 41, 37, 35], [68, 62, 55, 52, 51, 48, 47, 46, 43, 40, 39, 38, 37], [64, 60, 55, 51, 46, 45, 44, 25], [75, 74, 70, 68, 66, 64, 62, 61, 60, 58, 56, 54, 50, 48, 46, 41], [73, 68, 64, 61, 56, 55, 54, 52, 48, 46, 44, 31], [83, 82, 75, 69, 68, 64, 63, 61, 60, 57, 56, 54, 51, 49, 47, 44, 38], [83, 78, 75, 73, 72, 68, 66, 64, 63, 57, 55, 54, 52, 50, 49, 47, 44], [82, 78, 75, 74, 70, 69, 68, 62, 57, 56, 54, 50, 48, 41], [82, 78, 75, 74, 71, 64, 60, 57, 56, 55, 51, 44, 41], [83, 75, 74, 73, 64, 62, 61, 56, 54, 50, 46, 44], [83, 82, 78, 75, 73, 71, 70, 69, 68, 66, 64, 63, 62, 57, 43], [83, 82, 79, 78, 72, 69, 64, 57, 55, 49, 45], [83, 75, 74, 72, 71, 70, 67, 65, 64, 46, 44], [83, 82, 80, 75, 74, 71, 70, 69, 65, 57, 51, 47], [82, 77, 74, 73, 69, 68, 67, 64, 61, 51, 43], [80, 74, 71, 70, 69, 65, 61, 57, 56, 47], [82, 81, 73, 72, 70, 69, 66, 65, 62, 59, 57], [99, 82, 80, 74, 71, 69, 65, 62, 56, 47], [82, 80, 79, 74, 69, 64, 62, 57, 56], [100, 83, 80, 79, 78, 75, 74, 67, 57, 56], [101, 100, 97, 84, 81, 80, 77, 74, 73, 70, 58], [100, 85, 79, 76, 71, 67, 65, 64, 57], [100, 99, 95, 84, 82, 79, 74, 67, 56], [83, 73, 65, 49], [100, 95, 94, 85, 83, 75, 70, 65, 59], [100, 98, 95, 93, 80, 79, 72, 59], [100, 98, 95, 93, 85, 80, 79, 59], [99, 95, 85, 80, 76, 75, 74, 67, 65], [97, 82, 80, 79, 69, 57], [101, 100, 96, 95, 92, 86, 84, 81, 79, 77, 67], [100, 99, 98, 96, 95, 85, 80, 67, 65], [100, 98, 94, 85, 67, 59], [98, 95, 89, 85, 81, 79, 76, 71], [100, 93, 88, 76, 72, 66], [98, 95, 94, 86, 85, 84, 82, 79, 70], [99, 97, 95, 93, 85, 84, 80, 79, 76], [100, 95, 91, 90, 86, 84, 79, 71], [100, 96, 95, 94, 86, 70, 67], [101, 98, 89, 88, 86, 76, 72], [99, 98, 95, 94, 93, 92, 91, 88, 84, 77], [99, 98, 93, 89, 88, 86, 85, 76], [101, 99, 97, 92, 88, 87, 84, 76], [101, 99, 97, 96, 91, 90, 88, 87, 84], [97, 94, 88, 87, 84, 78], [100, 95, 90, 67], [100, 96, 93, 92, 91, 90, 89, 88, 87], [95, 92, 89, 86, 81], [97, 91, 90, 88, 87, 84], [98, 95, 94, 86, 84], [97, 93, 91, 89, 88, 87], [96, 95, 93, 90, 88, 87], [98, 91, 90, 88, 84], [93, 92, 91, 90, 88], [101, 97, 93, 92, 87], [94, 90, 87, 85], [95, 91, 79], [94, 90, 89, 87], [97, 90, 88, 87], [96, 91, 90], [90, 89, 87], [95, 85], [88, 87], [94, 91], [94, 88], [96, 88], [93, 89], [89], [92], [87], [102], [102], [102], [102], [102], [102], [102], [102], [102], [102], [102], [102], [102], [102], [102], []]
letting durations = [[0], [2, 9, 10], [4, 7, 9], [1, 6, 7], [3, 5, 8], [5, 6, 10], [3, 5, 6], [2, 4, 5], [3, 6, 8], [4, 5, 10], [2, 5, 8], [8, 8, 8], [5, 8, 9], [2, 7, 9], [4, 6, 7], [1, 5, 6], [6, 7, 8], [1, 3, 7], [2, 4, 8], [1, 3, 8], [4, 7, 9], [5, 9, 10], [2, 2, 10], [1, 5, 6], [1, 2, 7], [1, 5, 6], [1, 2, 8], [5, 7, 7], [3, 8, 9], [3, 6, 8], [3, 6, 10], [5, 6, 7], [3, 4, 5], [4, 6, 6], [6, 10, 10], [1, 3, 7], [4, 8, 9], [3, 4, 7], [2, 3, 9], [2, 7, 8], [2, 6, 8], [5, 7, 9], [2, 7, 10], [2, 9, 10], [2, 9, 10], [3, 4, 8], [2, 5, 10], [2, 2, 3], [2, 7, 8], [4, 5, 8], [2, 2, 8], [5, 6, 8], [1, 4, 5], [5, 6, 8], [1, 4, 6], [7, 7, 10], [2, 5, 9], [1, 6, 6], [2, 5, 8], [1, 2, 8], [2, 3, 7], [2, 6, 9], [5, 9, 10], [5, 5, 8], [6, 8, 9], [3, 5, 10], [2, 3, 4], [3, 8, 10], [7, 9, 10], [2, 5, 10], [5, 5, 10], [1, 6, 6], [2, 7, 8], [5, 7, 8], [2, 5, 10], [5, 9, 10], [4, 5, 8], [2, 7, 9], [3, 7, 9], [4, 5, 7], [1, 2, 9], [4, 6, 7], [3, 6, 8], [2, 3, 7], [2, 6, 8], [2, 3, 4], [3, 7, 7], [5, 7, 8], [7, 8, 9], [4, 6, 6], [2, 3, 6], [5, 7, 10], [4, 8, 9], [6, 9, 10], [5, 7, 8], [6, 7, 9], [1, 3, 8], [1, 8, 10], [1, 2, 4], [2, 4, 6], [1, 1, 10], [0]]
letting resourceUsage = [[[0, 0, 0, 0]], [[0, 1, 5, 0], [0, 1, 4, 0], [0, 1, 3, 0]], [[2, 0, 0, 7], [2, 0, 2, 0], [2, 0, 1, 0]], [[3, 0, 6, 0], [0, 3, 0, 6], [0, 3, 0, 5]], [[0, 5, 6, 0], [0, 4, 6, 0], [0, 4, 2, 0]], [[4, 0, 0, 8], [4, 0, 0, 5], [0, 4, 0, 3]], [[4, 0, 4, 0], [0, 3, 0, 5], [3, 0, 0, 2]], [[2, 0, 9, 0], [1, 0, 6, 0], [1, 0, 2, 0]], [[3, 0, 7, 0], [2, 0, 7, 0], [0, 2, 0, 7]], [[0, 1, 0, 5], [2, 0, 0, 3], [1, 0, 0, 2]], [[0, 3, 0, 7], [0, 3, 7, 0], [3, 0, 3, 0]], [[3, 0, 0, 6], [2, 0, 5, 0], [0, 4, 0, 5]], [[5, 0, 7, 0], [4, 0, 0, 5], [0, 3, 2, 0]], [[5, 0, 0, 9], [5, 0, 0, 6], [5, 0, 0, 3]], [[3, 0, 0, 5], [0, 4, 0, 4], [3, 0, 0, 3]], [[3, 0, 7, 0], [3, 0, 3, 0], [3, 0, 2, 0]], [[4, 0, 10, 0], [3, 0, 7, 0], [0, 2, 6, 0]], [[3, 0, 0, 6], [2, 0, 0, 5], [0, 1, 5, 0]], [[4, 0, 0, 5], [0, 3, 0, 4], [2, 0, 0, 1]], [[0, 5, 0, 8], [0, 4, 3, 0], [0, 4, 0, 6]], [[0, 5, 0, 9], [3, 0, 0, 8], [3, 0, 4, 0]], [[0, 3, 0, 7], [0, 2, 0, 5], [1, 0, 2, 0]], [[0, 3, 0, 6], [0, 3, 9, 0], [0, 3, 0, 5]], [[0, 3, 0, 2], [0, 2, 0, 2], [0, 2, 1, 0]], [[3, 0, 9, 0], [2, 0, 0, 7], [2, 0, 9, 0]], [[0, 2, 7, 0], [2, 0, 5, 0], [2, 0, 0, 3]], [[0, 4, 8, 0], [0, 3, 0, 7], [0, 2, 0, 6]], [[0, 1, 0, 9], [2, 0, 0, 7], [2, 0, 1, 0]], [[0, 2, 0, 7], [5, 0, 0, 7], [0, 1, 0, 7]], [[3, 0, 6, 0], [0, 5, 0, 2], [0, 5, 2, 0]], [[3, 0, 0, 10], [0, 4, 8, 0], [3, 0, 0, 6]], [[1, 0, 0, 1], [1, 0, 3, 0], [0, 2, 0, 1]], [[0, 4, 0, 9], [0, 4, 0, 8], [0, 3, 0, 7]], [[2, 0, 4, 0], [2, 0, 2, 0], [1, 0, 0, 2]], [[0, 3, 1, 0], [5, 0, 0, 4], [0, 2, 1, 0]], [[5, 0, 4, 0], [4, 0, 2, 0], [0, 3, 0, 5]], [[4, 0, 6, 0], [0, 3, 0, 2], [0, 3, 2, 0]], [[0, 4, 0, 10], [2, 0, 0, 7], [0, 2, 0, 7]], [[0, 3, 0, 9], [0, 2, 0, 7], [2, 0, 4, 0]], [[0, 3, 3, 0], [0, 2, 2, 0], [2, 0, 2, 0]], [[3, 0, 0, 7], [2, 0, 0, 6], [1, 0, 7, 0]], [[2, 0, 5, 0], [1, 0, 5, 0], [1, 0, 0, 5]], [[0, 4, 0, 7], [0, 2, 8, 0], [0, 2, 0, 3]], [[0, 3, 0, 6], [0, 2, 0, 5], [0, 1, 0, 4]], [[0, 4, 0, 2], [3, 0, 0, 1], [0, 4, 0, 1]], [[0, 4, 0, 9], [0, 3, 0, 7], [1, 0, 7, 0]], [[5, 0, 6, 0], [5, 0, 0, 2], [0, 5, 5, 0]], [[2, 0, 0, 4], [0, 4, 4, 0], [1, 0, 0, 4]], [[0, 4, 5, 0], [0, 3, 4, 0], [0, 2, 0, 4]], [[0, 4, 0, 9], [4, 0, 7, 0], [0, 2, 0, 2]], [[0, 5, 0, 8], [2, 0, 4, 0], [0, 3, 0, 7]], [[3, 0, 0, 6], [3, 0, 0, 5], [3, 0, 0, 3]], [[4, 0, 0, 7], [3, 0, 4, 0], [0, 1, 0, 3]], [[4, 0, 0, 5], [0, 3, 7, 0], [0, 3, 6, 0]], [[0, 2, 2, 0], [3, 0, 1, 0], [3, 0, 0, 4]], [[0, 3, 0, 5], [4, 0, 0, 5], [4, 0, 0, 3]], [[0, 4, 9, 0], [0, 3, 0, 9], [0, 3, 4, 0]], [[0, 4, 7, 0], [0, 3, 0, 2], [3, 0, 0, 2]], [[3, 0, 0, 10], [3, 0, 0, 6], [0, 4, 0, 6]], [[4, 0, 8, 0], [4, 0, 0, 3], [0, 2, 7, 0]], [[0, 2, 6, 0], [2, 0, 5, 0], [0, 1, 2, 0]], [[4, 0, 7, 0], [3, 0, 0, 7], [2, 0, 6, 0]], [[3, 0, 7, 0], [0, 1, 4, 0], [0, 1, 0, 2]], [[0, 4, 0, 8], [1, 0, 0, 8], [1, 0, 9, 0]], [[3, 0, 0, 8], [0, 3, 4, 0], [2, 0, 4, 0]], [[0, 1, 7, 0], [2, 0, 0, 1], [0, 1, 0, 1]], [[3, 0, 0, 7], [0, 4, 0, 5], [0, 4, 7, 0]], [[0, 3, 0, 5], [0, 3, 5, 0], [1, 0, 3, 0]], [[0, 5, 5, 0], [0, 4, 0, 5], [3, 0, 4, 0]], [[5, 0, 8, 0], [0, 3, 7, 0], [2, 0, 7, 0]], [[2, 0, 6, 0], [2, 0, 0, 1], [1, 0, 3, 0]], [[3, 0, 0, 6], [2, 0, 7, 0], [0, 1, 7, 0]], [[4, 0, 7, 0], [0, 1, 5, 0], [0, 1, 0, 6]], [[0, 5, 5, 0], [3, 0, 0, 5], [0, 4, 3, 0]], [[0, 5, 0, 6], [0, 4, 7, 0], [1, 0, 0, 3]], [[0, 3, 0, 2], [0, 3, 5, 0], [0, 3, 0, 1]], [[3, 0, 0, 7], [0, 1, 0, 4], [1, 0, 0, 3]], [[5, 0, 6, 0], [5, 0, 5, 0], [5, 0, 4, 0]], [[0, 3, 0, 7], [0, 3, 7, 0], [3, 0, 0, 6]], [[0, 2, 7, 0], [1, 0, 0, 5], [1, 0, 0, 2]], [[0, 3, 8, 0], [2, 0, 6, 0], [2, 0, 2, 0]], [[0, 2, 0, 9], [0, 2, 0, 5], [4, 0, 4, 0]], [[4, 0, 0, 3], [0, 3, 0, 3], [0, 3, 2, 0]], [[3, 0, 8, 0], [3, 0, 7, 0], [0, 1, 6, 0]], [[4, 0, 4, 0], [2, 0, 0, 5], [0, 2, 3, 0]], [[3, 0, 10, 0], [0, 3, 4, 0], [3, 0, 0, 5]], [[2, 0, 3, 0], [0, 4, 0, 5], [0, 4, 3, 0]], [[0, 3, 9, 0], [0, 2, 9, 0], [0, 2, 0, 3]], [[0, 3, 0, 8], [0, 2, 0, 6], [0, 1, 0, 5]], [[0, 5, 0, 7], [0, 3, 0, 7], [0, 3, 5, 0]], [[0, 3, 0, 3], [1, 0, 2, 0], [1, 0, 0, 2]], [[2, 0, 0, 2], [1, 0, 2, 0], [1, 0, 1, 0]], [[0, 4, 6, 0], [4, 0, 0, 5], [0, 3, 4, 0]], [[0, 4, 9, 0], [3, 0, 6, 0], [0, 3, 0, 4]], [[0, 3, 0, 10], [0, 2, 6, 0], [0, 2, 0, 9]], [[0, 5, 10, 0], [3, 0, 0, 9], [0, 5, 0, 9]], [[5, 0, 0, 7], [4, 0, 0, 6], [0, 3, 2, 0]], [[0, 3, 0, 9], [2, 0, 10, 0], [0, 2, 0, 3]], [[1, 0, 7, 0], [1, 0, 4, 0], [0, 1, 3, 0]], [[4, 0, 0, 9], [0, 3, 0, 6], [0, 1, 4, 0]], [[0, 5, 0, 10], [0, 2, 3, 0], [0, 2, 2, 0]], [[0, 0, 0, 0]]]
